backups_testes/5/solucoes/inst06.sol
Nodes: 10
Edges: 15
Terminals: 4
Valid Solution: true
Best cost: 24
Num edges cut: 7
Last update iteration: 1
Last update time: 0.00612346
Final iteration: 5522
Final time: 20.002
Edges cuted:
7 9 5
2 4 3
1 2 8
1 3 4
9 10 8
6 8 6
4 5 6
